c 0.002727985382080078 (encode time in sec)
p cnf 80 280
1 2 3 4 0
1 2 -3 5 0
1 -2 3 7 0
1 -2 -3 6 0
-1 2 3 8 0
-1 2 -3 0
-1 -2 3 0
-1 -2 -3 0
9 10 11 12 0
9 10 -11 14 0
9 -10 11 13 0
9 -10 -11 15 0
-9 10 11 16 0
-9 10 -11 0
-9 -10 11 0
-9 -10 -11 0
17 18 19 24 0
17 18 -19 21 0
17 -18 19 20 0
17 -18 -19 23 0
-17 18 19 22 0
-17 18 -19 0
-17 -18 19 0
-17 -18 -19 0
25 26 27 1 2 3 9 10 11 29 0
25 26 27 1 2 3 9 10 -11 28 0
25 26 27 1 2 3 9 -10 11 0
25 26 27 1 2 3 9 -10 -11 0
25 26 27 1 2 3 -9 10 11 0
25 26 27 1 2 -3 9 10 11 29 0
25 26 27 1 2 -3 9 10 -11 30 0
25 26 27 1 2 -3 9 -10 11 0
25 26 27 1 2 -3 9 -10 -11 0
25 26 27 1 2 -3 -9 10 11 0
25 26 27 1 -2 3 9 10 11 32 0
25 26 27 1 -2 3 9 10 -11 0
25 26 27 1 -2 3 9 -10 11 0
25 26 27 1 -2 3 9 -10 -11 0
25 26 27 1 -2 3 -9 10 11 0
25 26 27 1 -2 -3 9 10 11 0
25 26 27 1 -2 -3 9 10 -11 0
25 26 27 1 -2 -3 9 -10 11 0
25 26 27 1 -2 -3 9 -10 -11 0
25 26 27 1 -2 -3 -9 10 11 0
25 26 27 -1 2 3 9 10 11 0
25 26 27 -1 2 3 9 10 -11 30 0
25 26 27 -1 2 3 9 -10 11 30 0
25 26 27 -1 2 3 9 -10 -11 0
25 26 27 -1 2 3 -9 10 11 30 0
25 26 -27 1 2 3 9 10 11 0
25 26 -27 1 2 3 9 10 -11 33 0
25 26 -27 1 2 3 9 -10 11 29 0
25 26 -27 1 2 3 9 -10 -11 0
25 26 -27 1 2 3 -9 10 11 0
25 26 -27 1 2 -3 9 10 11 0
25 26 -27 1 2 -3 9 10 -11 34 0
25 26 -27 1 2 -3 9 -10 11 35 0
25 26 -27 1 2 -3 9 -10 -11 0
25 26 -27 1 2 -3 -9 10 11 0
25 26 -27 1 -2 3 9 10 11 32 0
25 26 -27 1 -2 3 9 10 -11 36 0
25 26 -27 1 -2 3 9 -10 11 0
25 26 -27 1 -2 3 9 -10 -11 0
25 26 -27 1 -2 3 -9 10 11 0
25 26 -27 1 -2 -3 9 10 11 29 0
25 26 -27 1 -2 -3 9 10 -11 46 0
25 26 -27 1 -2 -3 9 -10 11 0
25 26 -27 1 -2 -3 9 -10 -11 0
25 26 -27 1 -2 -3 -9 10 11 0
25 26 -27 -1 2 3 9 10 11 0
25 26 -27 -1 2 3 9 10 -11 30 0
25 26 -27 -1 2 3 9 -10 11 30 0
25 26 -27 -1 2 3 9 -10 -11 0
25 26 -27 -1 2 3 -9 10 11 30 0
25 -26 27 1 2 3 9 10 11 0
25 -26 27 1 2 3 9 10 -11 0
25 -26 27 1 2 3 9 -10 11 0
25 -26 27 1 2 3 9 -10 -11 40 0
25 -26 27 1 2 3 -9 10 11 0
25 -26 27 1 2 -3 9 10 11 0
25 -26 27 1 2 -3 9 10 -11 42 0
25 -26 27 1 2 -3 9 -10 11 37 0
25 -26 27 1 2 -3 9 -10 -11 38 0
25 -26 27 1 2 -3 -9 10 11 0
25 -26 27 1 -2 3 9 10 11 0
25 -26 27 1 -2 3 9 10 -11 43 0
25 -26 27 1 -2 3 9 -10 11 55 0
25 -26 27 1 -2 3 9 -10 -11 54 0
25 -26 27 1 -2 3 -9 10 11 0
25 -26 27 1 -2 -3 9 10 11 0
25 -26 27 1 -2 -3 9 10 -11 45 0
25 -26 27 1 -2 -3 9 -10 11 44 0
25 -26 27 1 -2 -3 9 -10 -11 0
25 -26 27 1 -2 -3 -9 10 11 0
25 -26 27 -1 2 3 9 10 11 29 0
25 -26 27 -1 2 3 9 10 -11 30 0
25 -26 27 -1 2 3 9 -10 11 30 0
25 -26 27 -1 2 3 9 -10 -11 0
25 -26 27 -1 2 3 -9 10 11 30 0
25 -26 -27 1 2 3 9 10 11 0
25 -26 -27 1 2 3 9 10 -11 0
25 -26 -27 1 2 3 9 -10 11 0
25 -26 -27 1 2 3 9 -10 -11 56 0
25 -26 -27 1 2 3 -9 10 11 0
25 -26 -27 1 2 -3 9 10 11 0
25 -26 -27 1 2 -3 9 10 -11 0
25 -26 -27 1 2 -3 9 -10 11 47 0
25 -26 -27 1 2 -3 9 -10 -11 53 0
25 -26 -27 1 2 -3 -9 10 11 29 0
25 -26 -27 1 -2 3 9 10 11 0
25 -26 -27 1 -2 3 9 10 -11 0
25 -26 -27 1 -2 3 9 -10 11 41 0
25 -26 -27 1 -2 3 9 -10 -11 51 0
25 -26 -27 1 -2 3 -9 10 11 0
25 -26 -27 1 -2 -3 9 10 11 0
25 -26 -27 1 -2 -3 9 10 -11 48 0
25 -26 -27 1 -2 -3 9 -10 11 50 0
25 -26 -27 1 -2 -3 9 -10 -11 30 0
25 -26 -27 1 -2 -3 -9 10 11 0
25 -26 -27 -1 2 3 9 10 11 0
25 -26 -27 -1 2 3 9 10 -11 30 0
25 -26 -27 -1 2 3 9 -10 11 30 0
25 -26 -27 -1 2 3 9 -10 -11 0
25 -26 -27 -1 2 3 -9 10 11 30 0
-25 26 27 1 2 3 9 10 11 0
-25 26 27 1 2 3 9 10 -11 0
-25 26 27 1 2 3 9 -10 11 0
-25 26 27 1 2 3 9 -10 -11 0
-25 26 27 1 2 3 -9 10 11 29 0
-25 26 27 1 2 -3 9 10 11 0
-25 26 27 1 2 -3 9 10 -11 0
-25 26 27 1 2 -3 9 -10 11 0
-25 26 27 1 2 -3 9 -10 -11 49 0
-25 26 27 1 2 -3 -9 10 11 0
-25 26 27 1 -2 3 9 10 11 0
-25 26 27 1 -2 3 9 10 -11 0
-25 26 27 1 -2 3 9 -10 11 0
-25 26 27 1 -2 3 9 -10 -11 46 0
-25 26 27 1 -2 3 -9 10 11 29 0
-25 26 27 1 -2 -3 9 10 11 0
-25 26 27 1 -2 -3 9 10 -11 0
-25 26 27 1 -2 -3 9 -10 11 39 0
-25 26 27 1 -2 -3 9 -10 -11 52 0
-25 26 27 1 -2 -3 -9 10 11 29 0
-25 26 27 -1 2 3 9 10 11 0
-25 26 27 -1 2 3 9 10 -11 30 0
-25 26 27 -1 2 3 9 -10 11 30 0
-25 26 27 -1 2 3 9 -10 -11 29 0
-25 26 27 -1 2 3 -9 10 11 30 0
-25 26 -27 0
-25 -26 27 0
-25 -26 -27 0
57 58 59 17 18 19 25 26 27 60 0
57 58 59 17 18 19 25 26 -27 60 0
57 58 59 17 18 19 25 -26 27 60 0
57 58 59 17 18 19 25 -26 -27 0
57 58 59 17 18 19 -25 26 27 0
57 58 59 17 18 -19 25 26 27 63 0
57 58 59 17 18 -19 25 26 -27 64 0
57 58 59 17 18 -19 25 -26 27 0
57 58 59 17 18 -19 25 -26 -27 0
57 58 59 17 18 -19 -25 26 27 0
57 58 59 17 -18 19 25 26 27 63 0
57 58 59 17 -18 19 25 26 -27 0
57 58 59 17 -18 19 25 -26 27 0
57 58 59 17 -18 19 25 -26 -27 0
57 58 59 17 -18 19 -25 26 27 0
57 58 59 17 -18 -19 25 26 27 63 0
57 58 59 17 -18 -19 25 26 -27 0
57 58 59 17 -18 -19 25 -26 27 0
57 58 59 17 -18 -19 25 -26 -27 0
57 58 59 17 -18 -19 -25 26 27 0
57 58 59 -17 18 19 25 26 27 60 0
57 58 59 -17 18 19 25 26 -27 0
57 58 59 -17 18 19 25 -26 27 0
57 58 59 -17 18 19 25 -26 -27 0
57 58 59 -17 18 19 -25 26 27 0
57 58 -59 17 18 19 25 26 27 60 0
57 58 -59 17 18 19 25 26 -27 60 0
57 58 -59 17 18 19 25 -26 27 60 0
57 58 -59 17 18 19 25 -26 -27 0
57 58 -59 17 18 19 -25 26 27 0
57 58 -59 17 18 -19 25 26 27 0
57 58 -59 17 18 -19 25 26 -27 62 0
57 58 -59 17 18 -19 25 -26 27 65 0
57 58 -59 17 18 -19 25 -26 -27 0
57 58 -59 17 18 -19 -25 26 27 0
57 58 -59 17 -18 19 25 26 27 0
57 58 -59 17 -18 19 25 26 -27 63 0
57 58 -59 17 -18 19 25 -26 27 75 0
57 58 -59 17 -18 19 25 -26 -27 0
57 58 -59 17 -18 19 -25 26 27 0
57 58 -59 17 -18 -19 25 26 27 0
57 58 -59 17 -18 -19 25 26 -27 66 0
57 58 -59 17 -18 -19 25 -26 27 0
57 58 -59 17 -18 -19 25 -26 -27 0
57 58 -59 17 -18 -19 -25 26 27 0
57 58 -59 -17 18 19 25 26 27 60 0
57 58 -59 -17 18 19 25 26 -27 60 0
57 58 -59 -17 18 19 25 -26 27 0
57 58 -59 -17 18 19 25 -26 -27 0
57 58 -59 -17 18 19 -25 26 27 0
57 -58 59 17 18 19 25 26 27 60 0
57 -58 59 17 18 19 25 26 -27 60 0
57 -58 59 17 18 19 25 -26 27 60 0
57 -58 59 17 18 19 25 -26 -27 63 0
57 -58 59 17 18 19 -25 26 27 0
57 -58 59 17 18 -19 25 26 27 0
57 -58 59 17 18 -19 25 26 -27 0
57 -58 59 17 18 -19 25 -26 27 67 0
57 -58 59 17 18 -19 25 -26 -27 68 0
57 -58 59 17 18 -19 -25 26 27 0
57 -58 59 17 -18 19 25 26 27 0
57 -58 59 17 -18 19 25 26 -27 0
57 -58 59 17 -18 19 25 -26 27 69 0
57 -58 59 17 -18 19 25 -26 -27 73 0
57 -58 59 17 -18 19 -25 26 27 0
57 -58 59 17 -18 -19 25 26 27 0
57 -58 59 17 -18 -19 25 26 -27 77 0
57 -58 59 17 -18 -19 25 -26 27 80 0
57 -58 59 17 -18 -19 25 -26 -27 0
57 -58 59 17 -18 -19 -25 26 27 0
57 -58 59 -17 18 19 25 26 27 60 0
57 -58 59 -17 18 19 25 26 -27 76 0
57 -58 59 -17 18 19 25 -26 27 0
57 -58 59 -17 18 19 25 -26 -27 0
57 -58 59 -17 18 19 -25 26 27 0
57 -58 -59 17 18 19 25 26 27 60 0
57 -58 -59 17 18 19 25 26 -27 60 0
57 -58 -59 17 18 19 25 -26 27 60 0
57 -58 -59 17 18 19 25 -26 -27 0
57 -58 -59 17 18 19 -25 26 27 63 0
57 -58 -59 17 18 -19 25 26 27 0
57 -58 -59 17 18 -19 25 26 -27 0
57 -58 -59 17 18 -19 25 -26 27 0
57 -58 -59 17 18 -19 25 -26 -27 68 0
57 -58 -59 17 18 -19 -25 26 27 77 0
57 -58 -59 17 -18 19 25 26 27 0
57 -58 -59 17 -18 19 25 26 -27 0
57 -58 -59 17 -18 19 25 -26 27 75 0
57 -58 -59 17 -18 19 25 -26 -27 72 0
57 -58 -59 17 -18 19 -25 26 27 71 0
57 -58 -59 17 -18 -19 25 26 27 0
57 -58 -59 17 -18 -19 25 26 -27 0
57 -58 -59 17 -18 -19 25 -26 27 70 0
57 -58 -59 17 -18 -19 25 -26 -27 79 0
57 -58 -59 17 -18 -19 -25 26 27 0
57 -58 -59 -17 18 19 25 26 27 60 0
57 -58 -59 -17 18 19 25 26 -27 0
57 -58 -59 -17 18 19 25 -26 27 63 0
57 -58 -59 -17 18 19 25 -26 -27 68 0
57 -58 -59 -17 18 19 -25 26 27 0
-57 58 59 17 18 19 25 26 27 60 0
-57 58 59 17 18 19 25 26 -27 60 0
-57 58 59 17 18 19 25 -26 27 60 0
-57 58 59 17 18 19 25 -26 -27 0
-57 58 59 17 18 19 -25 26 27 0
-57 58 59 17 18 -19 25 26 27 0
-57 58 59 17 18 -19 25 26 -27 0
-57 58 59 17 18 -19 25 -26 27 0
-57 58 59 17 18 -19 25 -26 -27 0
-57 58 59 17 18 -19 -25 26 27 66 0
-57 58 59 17 -18 19 25 26 27 0
-57 58 59 17 -18 19 25 26 -27 0
-57 58 59 17 -18 19 25 -26 27 0
-57 58 59 17 -18 19 25 -26 -27 0
-57 58 59 17 -18 19 -25 26 27 78 0
-57 58 59 17 -18 -19 25 26 27 0
-57 58 59 17 -18 -19 25 26 -27 0
-57 58 59 17 -18 -19 25 -26 27 0
-57 58 59 17 -18 -19 25 -26 -27 74 0
-57 58 59 17 -18 -19 -25 26 27 63 0
-57 58 59 -17 18 19 25 26 27 60 0
-57 58 59 -17 18 19 25 26 -27 0
-57 58 59 -17 18 19 25 -26 27 0
-57 58 59 -17 18 19 25 -26 -27 68 0
-57 58 59 -17 18 19 -25 26 27 63 0
-57 58 -59 0
-57 -58 59 0
-57 -58 -59 0
